WARNING: for repeatability, setting FPU to use double precision
============================[ Problem Statistics ]=============================
|                                                                             |
|  Number of variables:            50                                         |
|  Number of clauses:             218                                         |
|  Parse time:                   0.00 s                                       |
|                                                                             |
============================[ Search Statistics ]==============================
| Conflicts |          ORIGINAL         |          LEARNT          | Progress |
|           |    Vars  Clauses Literals |    Limit  Clauses Lit/Cl |          |
===============================================================================
===============================================================================
restarts              : 1
conflicts             : 39             (33534 /sec)
decisions             : 60             (0.00 % random) (51591 /sec)
propagations          : 616            (529665 /sec)
conflict literals     : 179            (5.29 % deleted)
Memory used           : 20.00 MB
CPU time              : 0.001163 s

SATISFIABLE
